23183
[0, 62, 5, 48, 89, 9, 83, 35, 98, 37, 23, 17, 78, 87, 15, 93, 21, 69, 65, 25, 64, 3, 52, 18, 74, 91, 7, 96, 55, 79, 30, 41, 88, 53, 39, 63, 1, 81, 94, 12, 75, 32, 36, 4, 51, 77, 95, 38, 29, 47, 99, 40, 70, 13, 2, 42, 45, 28, 84, 67, 49, 43, 72, 68, 80, 24, 60, 50, 86, 56, 8, 6, 33, 82, 54, 11, 19, 26, 85, 34, 61, 59, 76, 22, 97, 90, 44, 31, 10, 14, 16, 58, 73, 20, 71, 46, 92, 27, 57, 66]
